sat
(:eliminated-applications 2
 :eliminated-vars         1
 :max-memory              18.11
 :memory                  17.99
 :nlsat-propagations      7
 :nlsat-stages            3
 :num-allocs              7104
 :rlimit-count            3651
 :time                    0.00
 :total-time              0.01)
